<?xml version="1.0" encoding="UTF-8"?><osil xmlns="os.optimizationservices.org" xmlns:xsi="http://www.w3.org/2001/XMLSchema-instance" xsi:schemaLocation="os.optimizationservices.org http://www.optimizationservices.org/schemas/2.0/OSiL.xsd"><instanceHeader><name>batch</name></instanceHeader><instanceData><variables numberOfVariables="46"><var name="x1" ub="1.38629436111989"/><var name="x2" ub="1.38629436111989"/><var name="x3" ub="1.38629436111989"/><var name="x4" ub="1.38629436111989"/><var name="x5" ub="1.38629436111989"/><var name="x6" ub="1.38629436111989"/><var name="x7" lb="5.7037824746562" ub="8.00636756765025"/><var name="x8" lb="5.7037824746562" ub="8.00636756765025"/><var name="x9" lb="5.7037824746562" ub="8.00636756765025"/><var name="x10" lb="5.7037824746562" ub="8.00636756765025"/><var name="x11" lb="5.7037824746562" ub="8.00636756765025"/><var name="x12" lb="5.7037824746562" ub="8.00636756765025"/><var name="x13" lb="4.45966" ub="397.747"/><var name="x14" lb="3.7495" ub="882.353"/><var name="x15" lb="4.49144" ub="833.333"/><var name="x16" lb="3.14988" ub="638.298"/><var name="x17" lb="3.04452" ub="666.667"/><var name="x18" lb=".729961" ub="2.11626"/><var name="x19" lb=".530628" ub="1.91626"/><var name="x20" lb="1.09024" ub="2.47654"/><var name="x21" lb="-.133531" ub="1.25276"/><var name="x22" lb="4.87901e-2" ub="1.43508"/><var name="b23" type="B" ub="1"/><var name="b24" type="B" ub="1"/><var name="b25" type="B" ub="1"/><var name="b26" type="B" ub="1"/><var name="b27" type="B" ub="1"/><var name="b28" type="B" ub="1"/><var name="b29" type="B" ub="1"/><var name="b30" type="B" ub="1"/><var name="b31" type="B" ub="1"/><var name="b32" type="B" ub="1"/><var name="b33" type="B" ub="1"/><var name="b34" type="B" ub="1"/><var name="b35" type="B" ub="1"/><var name="b36" type="B" ub="1"/><var name="b37" type="B" ub="1"/><var name="b38" type="B" ub="1"/><var name="b39" type="B" ub="1"/><var name="b40" type="B" ub="1"/><var name="b41" type="B" ub="1"/><var name="b42" type="B" ub="1"/><var name="b43" type="B" ub="1"/><var name="b44" type="B" ub="1"/><var name="b45" type="B" ub="1"/><var name="b46" type="B" ub="1"/></variables><objectives><obj maxOrMin="min" name="defObj_objvar" numberOfObjCoef="0"/></objectives><constraints numberOfConstraints="73"><con name="e2" lb="2.06686275947298"/><con name="e3" lb=".693147180559945"/><con name="e4" lb="1.64865862558738"/><con name="e5" lb="1.58923520511658"/><con name="e6" lb="1.80828877117927"/><con name="e7" lb="1.43508452528932"/><con name="e8" lb="-.356674943938732"/><con name="e9" lb="-.22314355131421"/><con name="e10" lb="-.105360515657826"/><con name="e11" lb="1.22377543162212"/><con name="e12" lb=".741937344729377"/><con name="e13" lb=".916290731874155"/><con name="e14" lb="-.356674943938732"/><con name="e15" lb=".955511445027436"/><con name="e16" lb=".470003629245736"/><con name="e17" lb="1.28093384546206"/><con name="e18" lb="1.16315080980568"/><con name="e19" lb="1.06471073699243"/><con name="e20" lb="1.54756250871601"/><con name="e21" lb=".832909122935104"/><con name="e22" lb=".470003629245736"/><con name="e23" lb=".993251773010283"/><con name="e24" lb=".182321556793955"/><con name="e25" lb=".916290731874155"/><con name="e26" lb=".182321556793955"/><con name="e27" lb="1.28093384546206"/><con name="e28" lb=".8754687373539"/><con name="e29" lb="1.50407739677627"/><con name="e30" lb=".470003629245736"/><con name="e31" lb=".741937344729377"/><con name="e32" lb="1.85629799036563"/><con name="e33" lb="1.54756250871601"/><con name="e34" lb="2.11625551480255"/><con name="e35" lb="1.3609765531356"/><con name="e36" lb=".741937344729377"/><con name="e37" lb=".182321556793955"/><con name="e38" lb="1.91692261218206"/><con name="e39" lb="1.85629799036563"/><con name="e40" lb="1.87180217690159"/><con name="e41" lb="1.48160454092422"/><con name="e42" lb=".832909122935104"/><con name="e43" lb="1.16315080980568"/><con name="e44" lb="0"/><con name="e45" lb="1.84054963339749"/><con name="e46" lb="1.68639895357023"/><con name="e47" lb="2.47653840011748"/><con name="e48" lb="1.7404661748405"/><con name="e49" lb="1.82454929205105"/><con name="e50" lb="1.16315080980568"/><con name="e51" lb="1.09861228866811"/><con name="e52" lb="1.25276296849537"/><con name="e53" lb="1.19392246847243"/><con name="e54" lb="1.02961941718116"/><con name="e55" lb="1.22377543162212"/><con name="e56" lb=".741937344729377"/><con name="e57" lb=".916290731874155"/><con name="e58" lb="1.43508452528932"/><con name="e59" lb="1.28093384546206"/><con name="e60" lb="1.30833281965018"/><con name="e61" lb=".78845736036427"/><con name="e62" ub="6e3"/><con name="e63" lb="0" ub="0"/><con name="e64" lb="0" ub="0"/><con name="e65" lb="0" ub="0"/><con name="e66" lb="0" ub="0"/><con name="e67" lb="0" ub="0"/><con name="e68" lb="0" ub="0"/><con name="e69" lb="1" ub="1"/><con name="e70" lb="1" ub="1"/><con name="e71" lb="1" ub="1"/><con name="e72" lb="1" ub="1"/><con name="e73" lb="1" ub="1"/><con name="e74" lb="1" ub="1"/></constraints><linearConstraintCoefficients numberOfValues="168"><start><el mult="61" incr="2">0</el><el mult="13" incr="4">120</el></start><colIdx><el>6</el><el>12</el><el>7</el><el>12</el><el>8</el><el>12</el><el>9</el><el>12</el><el>10</el><el>12</el><el>11</el><el>12</el><el>6</el><el>13</el><el>7</el><el>13</el><el>8</el><el>13</el><el>9</el><el>13</el><el>10</el><el>13</el><el>11</el><el>13</el><el>6</el><el>14</el><el>7</el><el>14</el><el>8</el><el>14</el><el>9</el><el>14</el><el>10</el><el>14</el><el>11</el><el>14</el><el>6</el><el>15</el><el>7</el><el>15</el><el>8</el><el>15</el><el>9</el><el>15</el><el>10</el><el>15</el><el>11</el><el>15</el><el>6</el><el>16</el><el>7</el><el>16</el><el>8</el><el>16</el><el>9</el><el>16</el><el>10</el><el>16</el><el>11</el><el>16</el><el>0</el><el>17</el><el>1</el><el>17</el><el>2</el><el>17</el><el>3</el><el>17</el><el>4</el><el>17</el><el>5</el><el>17</el><el>0</el><el>18</el><el>1</el><el>18</el><el>2</el><el>18</el><el>3</el><el>18</el><el>4</el><el>18</el><el>5</el><el>18</el><el>0</el><el>19</el><el>1</el><el>19</el><el>2</el><el>19</el><el>3</el><el>19</el><el>4</el><el>19</el><el>5</el><el>19</el><el>0</el><el>20</el><el>1</el><el>20</el><el>2</el><el>20</el><el>3</el><el>20</el><el>4</el><el>20</el><el>5</el><el>20</el><el>0</el><el>21</el><el>1</el><el>21</el><el>2</el><el>21</el><el>3</el><el>21</el><el>4</el><el>21</el><el>5</el><el>21</el><el>0</el><el mult="3" incr="6">28</el><el>1</el><el mult="3" incr="6">29</el><el>2</el><el mult="3" incr="6">30</el><el>3</el><el mult="3" incr="6">31</el><el>4</el><el mult="3" incr="6">32</el><el>5</el><el mult="3" incr="6">33</el><el mult="4" incr="6">22</el><el mult="4" incr="6">23</el><el mult="4" incr="6">24</el><el mult="4" incr="6">25</el><el mult="4" incr="6">26</el><el mult="4" incr="6">27</el></colIdx><value><el>1</el><el>-1</el><el>1</el><el>-1</el><el>1</el><el>-1</el><el>1</el><el>-1</el><el>1</el><el>-1</el><el>1</el><el>-1</el><el>1</el><el>-1</el><el>1</el><el>-1</el><el>1</el><el>-1</el><el>1</el><el>-1</el><el>1</el><el>-1</el><el>1</el><el>-1</el><el>1</el><el>-1</el><el>1</el><el>-1</el><el>1</el><el>-1</el><el>1</el><el>-1</el><el>1</el><el>-1</el><el>1</el><el>-1</el><el>1</el><el>-1</el><el>1</el><el>-1</el><el>1</el><el>-1</el><el>1</el><el>-1</el><el>1</el><el>-1</el><el>1</el><el>-1</el><el>1</el><el>-1</el><el>1</el><el>-1</el><el>1</el><el>-1</el><el>1</el><el>-1</el><el>1</el><el>-1</el><el>1</el><el>-1</el><el mult="61">1</el><el>-.693147180559945</el><el>-1.09861228866811</el><el>-1.38629436111989</el><el>1</el><el>-.693147180559945</el><el>-1.09861228866811</el><el>-1.38629436111989</el><el>1</el><el>-.693147180559945</el><el>-1.09861228866811</el><el>-1.38629436111989</el><el>1</el><el>-.693147180559945</el><el>-1.09861228866811</el><el>-1.38629436111989</el><el>1</el><el>-.693147180559945</el><el>-1.09861228866811</el><el>-1.38629436111989</el><el>1</el><el>-.693147180559945</el><el>-1.09861228866811</el><el>-1.38629436111989</el><el mult="24">1</el></value></linearConstraintCoefficients><nonlinearExpressions numberOfNonlinearExpressions="2"><nl idx="-1"><sum><product><exp><sum><variable idx="0"/><variable idx="6" coef=".6"/></sum></exp><number value="2.5e2"/></product><product><exp><sum><variable idx="1"/><variable idx="7" coef=".6"/></sum></exp><number value="2.5e2"/></product><product><exp><sum><variable idx="2"/><variable idx="8" coef=".6"/></sum></exp><number value="2.5e2"/></product><product><exp><sum><variable idx="3"/><variable idx="9" coef=".6"/></sum></exp><number value="2.5e2"/></product><product><exp><sum><variable idx="4"/><variable idx="10" coef=".6"/></sum></exp><number value="2.5e2"/></product><product><exp><sum><variable idx="5"/><variable idx="11" coef=".6"/></sum></exp><number value="2.5e2"/></product></sum></nl><nl idx="60"><sum><product><exp><sum><variable idx="12" coef="-1"/><variable idx="17"/></sum></exp><number value="2.5e5"/></product><product><exp><sum><variable idx="13" coef="-1"/><variable idx="18"/></sum></exp><number value="1.5e5"/></product><product><exp><sum><variable idx="14" coef="-1"/><variable idx="19"/></sum></exp><number value="1.8e5"/></product><product><exp><sum><variable idx="15" coef="-1"/><variable idx="20"/></sum></exp><number value="1.6e5"/></product><product><exp><sum><variable idx="16" coef="-1"/><variable idx="21"/></sum></exp><number value="1.2e5"/></product></sum></nl></nonlinearExpressions></instanceData></osil>